<instance format="XCSP3" type="CSP">
  <variables>
    <var id="x0"> 7 9 17 </var>
    <var id="x1"> 4 7 12 17 </var>
    <var id="x2"> 0 3 17 </var>
    <var id="x3"> 0 3 4 7 </var>
    <var id="x4"> 0 4 7 12 </var>
    <var id="x5"> 0 3 12 13 </var>
    <var id="x6"> 0 3 17 </var>
    <var id="x7"> 3 4 12 13 17 </var>
    <var id="x8"> 7 10 16 </var>
    <var id="x9"> 4 12 14 16 </var>
    <var id="x10"> 7 10 12 17 </var>
    <var id="x11"> 0 4 12 16 </var>
    <var id="x12"> 0 7 10 12 17 </var>
    <var id="x13"> 4 10 12 14 17 </var>
    <var as="x9" id="x14"/>
    <var as="x13" id="x15"/>
    <var id="x16"> 6 11 17 </var>
    <var id="x17"> 4 11..13 </var>
    <var id="x18"> 10 12 13 </var>
    <var id="x19"> 4..6 12 </var>
    <var id="x20"> 10..12 17 </var>
    <var id="x21"> 5 10 11 17 </var>
    <var id="x22"> 4 6 10 12 </var>
    <var id="x23"> 4..6 12 </var>
    <var id="x24"> 7 12 14 17 </var>
    <var id="x25"> 7 11 </var>
    <var id="x26"> 0 7 8 15 </var>
    <var id="x27"> 7 12 15 17 </var>
    <var id="x28"> 0 7 12 15 </var>
    <var id="x29"> 12 14 17 </var>
    <var id="x30"> 8 12 14 </var>
    <var id="x31"> 12 14 15 17 </var>
    <var id="x32"> 1 14 15 </var>
    <var id="x33"> 1 4 12 14 15 </var>
    <var id="x34"> 1 10 12 15 </var>
    <var id="x35"> 2 14 15 </var>
    <var id="x36"> 2 4 10 12 14 </var>
    <var id="x37"> 9 10 14 15 </var>
    <var id="x38"> 2 4 10 12 </var>
    <var id="x39"> 4 9 10 12 14 15 </var>
    <var id="x40"> 6 11 </var>
    <var id="x41"> 0 3 6 11 15 </var>
    <var id="x42"> 3 11 16 </var>
    <var id="x43"> 0 3 6 15 16 </var>
    <var id="x44"> 0 6 15 16 </var>
    <var id="x45"> 3 6 16 </var>
    <var id="x46"> 6 11 13 </var>
    <var id="x47"> 2 7 17 </var>
    <var id="x48"> 3 7 13 17 </var>
    <var id="x49"> 2 4 7 </var>
    <var id="x50"> 3 14 17 </var>
    <var id="x51"> 2..4 7 </var>
    <var id="x52"> 3 4 14 </var>
    <var id="x53"> 4 14 17 </var>
    <var id="x54"> 6 9 17 </var>
    <var id="x55"> 1 4 6 14 17 </var>
    <var id="x56"> 3 9 </var>
    <var id="x57"> 3 9 15 17 </var>
    <var id="x58"> 3 14 15 </var>
    <var id="x59"> 1 4 6 15 </var>
    <var id="x60"> 1 4 6 17 </var>
    <var id="x61"> 4 9 14 15 17 </var>
    <var id="x62"> 2 6 7 11 </var>
    <var id="x63"> 0 6 11 14 15 </var>
    <var id="x64"> 0 2 6 7 15 </var>
    <var id="x65"> 0 10 14 15 </var>
    <var id="x66"> 0 7 10 11 15 </var>
    <var id="x67"> 0 2 11 14 15 </var>
    <var id="x68"> 2 10 14 </var>
    <var id="x69"> 2 6 11 </var>
    <var id="x70"> 3 7 8 15 16 </var>
    <var id="x71"> 3 7 9 10 15 </var>
    <var id="x72"> 3 10 15 16 </var>
    <var id="x73"> 7 10 15 </var>
    <var id="x74"> 3 5 15 </var>
    <var id="x75"> 3 5 9 10 15 </var>
    <var id="x76"> 3 7 10 </var>
    <var id="x77"> 3 5 8 16 </var>
    <var id="x78"> 2 6 8 11 </var>
    <var id="x79"> 2 3 5 11 </var>
    <var id="x80"> 3 6 8 15 </var>
    <var id="x81"> 11 12 15 </var>
    <var id="x82"> 2 5 6 12 15 </var>
    <var id="x83"> 3 12 15 </var>
    <var id="x84"> 2 3 12 </var>
    <var id="x85"> 3 5 11 15 </var>
    <var id="x86"> 1 4 6 10 12 </var>
    <var id="x87"> 0 1 6 15 </var>
    <var id="x88"> 10 16 </var>
    <var id="x89"> 1 4 12 15 16 </var>
    <var id="x90"> 0 4 6 12 15 </var>
    <var id="x91"> 0 10 12 15 16 </var>
    <var id="x92"> 0 1 10 12 15 </var>
    <var id="x93"> 1 4 6 </var>
    <var id="x94"> 1 4 6 17 </var>
    <var id="x95"> 4 6 15 </var>
    <var id="x96"> 9 15 17 </var>
    <var id="x97"> 1 4..6 15 </var>
    <var id="x98"> 1 15 17 </var>
    <var id="x99"> 2 5 15 17 </var>
    <var id="x100"> 1 2 4 6 17 </var>
    <var id="x101"> 4 9 15 17 </var>
    <var id="x102"> 4 7 12 14 17 </var>
    <var id="x103"> 0 3 11 14 17 </var>
    <var id="x104"> 0 3 4 7 </var>
    <var id="x105"> 4 11 12 14 </var>
    <var id="x106"> 0 4 7 12 </var>
    <var id="x107"> 0 7 11 12 17 </var>
    <var id="x108"> 3 11 14 17 </var>
    <var id="x109"> 0 3 4 7 12 </var>
    <var id="x110"> 1 6 10 12 17 </var>
    <var id="x111"> 2 10 16 </var>
    <var id="x112"> 6 15 16 </var>
    <var id="x113"> 1 12 15 16 </var>
    <var id="x114"> 1 6 12 15 16 </var>
    <var id="x115"> 2 15 17 </var>
    <var id="x116"> 2 10 12 17 </var>
    <var id="x117"> 6 12 16 </var>
    <var id="x118"> 7 10 12 14 </var>
    <var id="x119"> 3 7 10 12 </var>
    <var id="x120"> 0 12 </var>
    <var id="x121"> 0 3 11 14 </var>
    <var id="x122"> 3 10 12 14 </var>
    <var id="x123"> 0 3 7 10 12 </var>
    <var id="x124"> 10 12 14 </var>
    <var as="x108" id="x125"/>
    <var id="x126"> 3 5 11 16 </var>
    <var id="x127"> 3 12 17 </var>
    <var id="x128"> 4 5 12 16 </var>
    <var id="x129"> 3 5 11 14 17 </var>
    <var id="x130"> 3 4 12 </var>
    <var id="x131"> 3..5 12 14 16 </var>
    <var id="x132"> 4 11 17 </var>
    <var id="x133"> 1 3 6 15 </var>
    <var id="x134"> 1 13 15 </var>
    <var id="x135"> 2 5 6 15 </var>
    <var id="x136"> 3 10 13 15 </var>
    <var id="x137"> 2 3 5 15 </var>
    <var id="x138"> 3 5 10 15 </var>
    <var id="x139"> 2 3 6 10 </var>
    <var id="x140"> 1 2 6 13 </var>
  </variables>
  <constraints>
    <group>
      <allDifferent> %... </allDifferent>
      <args> x0 x1 x2 x3 x4 x5 x6 x7 </args>
      <args> x8 x9 x10 x11 x12 x13 x14 x15 </args>
      <args> x16 x17 x18 x19 x20 x21 x22 x23 </args>
      <args> x24 x25 x26 x27 x28 x29 x30 x31 </args>
      <args> x32 x33 x34 x35 x36 x37 x38 x39 </args>
      <args> x40 x41 x42 x43 x44 x45 x46 </args>
      <args> x47 x48 x49 x50 x51 x52 x53 </args>
      <args> x54 x55 x56 x57 x58 x59 x60 x61 </args>
      <args> x62 x63 x64 x65 x66 x67 x68 x69 </args>
      <args> x70 x71 x72 x73 x74 x75 x76 x77 </args>
      <args> x78 x79 x80 x81 x82 x83 x84 x85 </args>
      <args> x86 x87 x88 x89 x90 x91 x92 x93 </args>
      <args> x94 x95 x96 x97 x98 x99 x100 x101 </args>
      <args> x102 x103 x104 x105 x106 x107 x108 x109 </args>
      <args> x110 x111 x112 x113 x114 x115 x116 x117 </args>
      <args> x118 x119 x120 x121 x122 x123 x124 </args>
      <args> x125 x126 x127 x128 x129 x130 x131 x132 </args>
      <args> x133 x134 x135 x136 x137 x138 x139 x140 </args>
      <args> x0 x16 x40 x47 x54 x62 x78 </args>
      <args> x1 x24 x55 x86 x94 x102 x110 x118 </args>
      <args> x2 x32 x41 x63 x87 x103 x125 x133 </args>
      <args> x8 x25 x42 x56 x79 x88 x111 x126 </args>
      <args> x3 x26 x43 x70 x80 x95 x104 x112 </args>
      <args> x9 x17 x33 x81 x89 x105 x113 x134 </args>
      <args> x10 x27 x48 x57 x71 x96 x119 x127 </args>
      <args> x4 x28 x49 x64 x82 x90 x106 x135 </args>
      <args> x5 x18 x58 x65 x72 x83 x91 x136 </args>
      <args> x11 x19 x44 x59 x97 x114 x120 x128 </args>
      <args> x12 x20 x34 x66 x73 x92 x98 x107 </args>
      <args> x6 x35 x67 x74 x99 x115 x121 x137 </args>
      <args> x7 x13 x29 x36 x68 x84 x116 x122 </args>
      <args> x21 x37 x50 x75 x85 x108 x129 x138 </args>
      <args> x22 x38 x51 x76 x109 x123 x130 x139 </args>
      <args> x14 x23 x30 x45 x52 x77 x117 x131 </args>
      <args> x46 x60 x69 x93 x100 x132 x140 </args>
      <args> x15 x31 x39 x53 x61 x101 x124 </args>
    </group>
  </constraints>
</instance>

